n_res = 5;
rcap = [15, 14, 10, 59, 55];
rtype = [1, 1, 1, 2, 2];
n_tasks = 16;
modes = [ {1, 2, 3}, {4, 5, 6}, {7, 8, 9}, {10, 11, 12}, {13, 14, 15}, {16, 17, 18}, {19, 20, 21}, {22, 23, 24}, {25, 26, 27}, {28, 29, 30}, {31, 32, 33}, {34, 35, 36}, {37, 38, 39}, {40, 41, 42}, {43, 44, 45}, {46, 47, 48} ];
succ = [ {4, 7, 13}, {5, 13}, {6, 9, 15}, {6, 9}, {6, 8}, {12, 16}, {10, 12}, {9, 15}, {10, 12, 16}, {11}, {14}, {14}, {14, 15, 16}, {}, {}, {} ];
n_opt = 48;
dur = [3, 5, 8, 6, 6, 10, 1, 5, 6, 6, 9, 9, 5, 10, 10, 4, 9, 10, 2, 3, 6, 1, 6, 7, 2, 7, 8, 1, 3, 6, 8, 10, 10, 2, 6, 9, 5, 6, 10, 2, 6, 7, 2, 5, 7, 1, 3, 10];
rreq = [|  9,  0,  8,  7,  8,  5,  6,  0,  4,  6,  0,  2,  0,  4,  0,  0, 10,  3,  8,  7,  6,  0,  5,  0,  0,  0,  0,  0,  0,  3,  1,  0,  0, 10,  0,  2,  0,  0,  8,  5,  3,  2,  0,  7,  3,  0,  4,  0
        |  8,  3,  0,  0,  0,  3,  0,  7,  0,  0,  0,  0,  6,  5,  2,  5,  0,  0,  0,  0,  6,  5,  0,  0,  9,  9,  8,  8,  7,  0,  0,  3,  0,  0,  7,  6,  6,  0,  0,  7,  1,  0,  6,  3,  0,  0,  5,  0
        |  0,  6,  0,  4,  3,  0,  0,  0,  0,  0,  4,  0,  0,  0,  3,  0,  0,  0,  0,  0,  0,  0,  0,  1,  2,  0,  2,  0,  8,  0,  8,  0,  7,  2,  0,  0,  5,  5,  0, 10,  4,  1,  9,  6,  0,  9,  6,  1
        |  0,  0,  0,  6,  0,  0,  6,  5,  5,  8,  2,  4,  9,  0,  9,  0,  0,  0, 10,  0,  9,  3,  0,  0,  0,  0,  0,  5,  4,  0,  0,  0,  0,  7,  5,  0,  8,  8,  7,  7,  0,  0,  0,  0,  0,  5,  4,  0
        |  8,  8,  8,  0,  2,  2,  0,  0,  0,  0,  0,  0,  0,  3,  0,  5,  5,  3,  0,  1,  0,  0,  8,  7, 10,  9,  6,  0,  0,  6,  4,  3,  3,  0,  0,  3,  0,  0,  0,  0,  4,  2,  3,  3,  3,  0,  0,  9 |];
